!PBE 6-31G* engrad
* xyzfile 0 1 geometry.xyz
